p cnf 412 698
70 -55 -29 76 0
70 -55 -29 -76 0
-68 6 -36 77 0
-68 6 -36 -77 0
35 -5 51 78 0
35 -5 51 -78 0
46 10 -15 79 0
46 10 -15 -79 0
-17 -69 55 80 0
-17 -69 55 -80 0
-27 -37 -9 81 0
-27 -37 -9 -81 0
49 -58 55 82 0
49 -58 55 -82 0
-7 1 16 83 0
-7 1 16 -83 0
62 3 11 84 0
62 3 11 -84 0
-73 47 -21 85 0
-73 47 -21 -85 0
7 41 25 86 0
7 41 25 -86 0
-65 70 71 87 0
-65 70 71 -87 0
-54 -10 -38 88 0
-54 -10 -38 -88 0
71 -54 72 89 0
71 -54 72 -89 0
-33 52 73 90 0
-33 52 73 -90 0
-41 -35 -53 91 0
-41 -35 -53 -91 0
-3 39 -69 92 0
-3 39 -69 -92 0
-36 -62 -7 93 0
-36 -62 -7 -93 0
-67 -51 52 94 0
-67 -51 52 -94 0
-15 7 12 95 0
-15 7 12 -95 0
33 -70 -1 96 0
33 -70 -1 -96 0
26 9 -69 97 0
26 9 -69 -97 0
-59 -3 -73 98 0
-59 -3 -73 -98 0
48 34 -36 99 0
48 34 -36 -99 0
30 -10 62 100 0
30 -10 62 -100 0
56 40 11 101 0
56 40 11 -101 0
-28 17 -4 102 0
-28 17 -4 -102 0
35 36 -67 103 0
35 36 -67 -103 0
63 -52 -36 104 0
63 -52 -36 -104 0
-73 -22 49 105 0
-73 -22 49 -105 0
69 24 -58 106 0
69 24 -58 -106 0
14 54 -9 107 0
14 54 -9 -107 0
11 65 2 108 0
11 65 2 -108 0
64 67 -71 109 0
64 67 -71 -109 0
63 -13 -9 110 0
63 -13 -9 -110 0
55 -65 1 111 0
55 -65 1 -111 0
30 8 6 112 0
30 8 6 -112 0
4 35 25 113 0
4 35 25 -113 0
24 -26 21 114 0
24 -26 21 -114 0
7 -37 -49 115 0
7 -37 -49 -115 0
-68 53 35 116 0
-68 53 35 -116 0
21 44 -36 117 0
21 44 -36 -117 0
62 10 -19 118 0
62 10 -19 -118 0
-40 -38 -5 119 0
-40 -38 -5 -119 0
-21 64 16 120 0
-21 64 16 -120 0
-39 -72 66 121 0
-39 -72 66 -121 0
-27 -12 -50 122 0
-27 -12 -50 -122 0
-46 25 65 123 0
-46 25 65 -123 0
-44 -1 42 124 0
-44 -1 42 -124 0
-27 7 12 125 0
-27 7 12 -125 0
-56 39 13 126 0
-56 39 13 -126 0
52 -64 -16 127 0
52 -64 -16 -127 0
-6 20 -4 128 0
-6 20 -4 -128 0
-75 52 40 129 0
-75 52 40 -129 0
65 51 31 130 0
65 51 31 -130 0
16 -73 70 131 0
16 -73 70 -131 0
-32 -21 -20 132 0
-32 -21 -20 -132 0
26 -52 14 133 0
26 -52 14 -133 0
68 48 73 134 0
68 48 73 -134 0
58 3 73 135 0
58 3 73 -135 0
-44 -19 -13 136 0
-44 -19 -13 -136 0
71 -4 -2 137 0
71 -4 -2 -137 0
9 1 -25 138 0
9 1 -25 -138 0
-45 -23 -42 139 0
-45 -23 -42 -139 0
-37 -60 61 140 0
-37 -60 61 -140 0
-19 -7 -13 141 0
-19 -7 -13 -141 0
-53 58 -71 142 0
-53 58 -71 -142 0
2 -35 -68 143 0
2 -35 -68 -143 0
69 -12 34 144 0
69 -12 34 -144 0
24 29 -1 145 0
24 29 -1 -145 0
10 22 -70 146 0
10 22 -70 -146 0
16 -57 -32 147 0
16 -57 -32 -147 0
-54 51 25 148 0
-54 51 25 -148 0
-35 69 26 149 0
-35 69 26 -149 0
9 -53 -45 150 0
9 -53 -45 -150 0
-73 71 -70 151 0
-73 71 -70 -151 0
-42 -33 56 152 0
-42 -33 56 -152 0
64 -22 6 153 0
64 -22 6 -153 0
27 74 -52 154 0
27 74 -52 -154 0
29 -5 38 155 0
29 -5 38 -155 0
36 62 4 156 0
36 62 4 -156 0
-70 37 58 157 0
-70 37 58 -157 0
-56 27 19 158 0
-56 27 19 -158 0
-20 -45 -23 159 0
-20 -45 -23 -159 0
64 -18 -55 160 0
64 -18 -55 -160 0
-36 -15 33 161 0
-36 -15 33 -161 0
42 37 73 162 0
42 37 73 -162 0
-37 10 -30 163 0
-37 10 -30 -163 0
5 22 17 164 0
5 22 17 -164 0
-3 6 23 165 0
-3 6 23 -165 0
-28 66 -18 166 0
-28 66 -18 -166 0
21 72 -22 167 0
21 72 -22 -167 0
-21 -59 -61 168 0
-21 -59 -61 -168 0
-23 -43 10 169 0
-23 -43 10 -169 0
-46 -72 -32 170 0
-46 -72 -32 -170 0
71 -5 54 171 0
71 -5 54 -171 0
73 9 5 172 0
73 9 5 -172 0
-69 48 -10 173 0
-69 48 -10 -173 0
-42 46 15 174 0
-42 46 15 -174 0
3 -56 -5 175 0
3 -56 -5 -175 0
-22 -44 -63 176 0
-22 -44 -63 -176 0
8 -54 60 177 0
8 -54 60 -177 0
-39 -66 60 178 0
-39 -66 60 -178 0
20 -12 -54 179 0
20 -12 -54 -179 0
-43 65 44 180 0
-43 65 44 -180 0
30 -45 -62 181 0
30 -45 -62 -181 0
-68 -51 22 182 0
-68 -51 22 -182 0
-65 -27 -10 183 0
-65 -27 -10 -183 0
58 -18 -66 184 0
58 -18 -66 -184 0
-25 -20 -43 185 0
-25 -20 -43 -185 0
-10 21 37 186 0
-10 21 37 -186 0
-39 30 -56 187 0
-39 30 -56 -187 0
3 -72 -71 188 0
3 -72 -71 -188 0
-67 -29 -12 189 0
-67 -29 -12 -189 0
36 14 -8 190 0
36 14 -8 -190 0
70 17 -20 191 0
70 17 -20 -191 0
36 51 13 192 0
36 51 13 -192 0
-60 -39 -17 193 0
-60 -39 -17 -193 0
-49 42 17 194 0
-49 42 17 -194 0
-49 -59 19 195 0
-49 -59 19 -195 0
56 57 -42 196 0
56 57 -42 -196 0
-58 -48 -29 197 0
-58 -48 -29 -197 0
15 48 28 198 0
15 48 28 -198 0
19 -2 -44 199 0
19 -2 -44 -199 0
-41 35 50 200 0
-41 35 50 -200 0
-10 -71 18 201 0
-10 -71 18 -201 0
-30 -54 -2 202 0
-30 -54 -2 -202 0
-47 63 -38 203 0
-47 63 -38 -203 0
-2 -38 -66 204 0
-2 -38 -66 -204 0
36 38 11 205 0
36 38 11 -205 0
-48 32 22 206 0
-48 32 22 -206 0
19 37 -70 207 0
19 37 -70 -207 0
-9 -66 -31 208 0
-9 -66 -31 -208 0
36 66 12 209 0
36 66 12 -209 0
3 72 -47 210 0
3 72 -47 -210 0
-40 -55 26 211 0
-40 -55 26 -211 0
-3 62 69 212 0
-3 62 69 -212 0
-40 -15 -4 213 0
-40 -15 -4 -213 0
-45 -21 60 214 0
-45 -21 60 -214 0
66 -49 16 215 0
66 -49 16 -215 0
-32 27 -3 216 0
-32 27 -3 -216 0
14 -33 8 217 0
14 -33 8 -217 0
-51 -55 24 218 0
-51 -55 24 -218 0
-16 61 1 219 0
-16 61 1 -219 0
63 -6 -37 220 0
63 -6 -37 -220 0
56 20 62 221 0
56 20 62 -221 0
-52 -45 66 222 0
-52 -45 66 -222 0
3 31 -9 223 0
3 31 -9 -223 0
-43 17 -34 224 0
-43 17 -34 -224 0
64 1 -72 225 0
64 1 -72 -225 0
-9 -6 71 226 0
-9 -6 71 -226 0
-19 -9 3 227 0
-19 -9 3 -227 0
19 57 -32 228 0
19 57 -32 -228 0
-36 -65 42 229 0
-36 -65 42 -229 0
-49 -52 -55 230 0
-49 -52 -55 -230 0
-4 50 60 231 0
-4 50 60 -231 0
-65 23 31 232 0
-65 23 31 -232 0
72 -30 61 233 0
72 -30 61 -233 0
-27 -10 -6 234 0
-27 -10 -6 -234 0
24 32 37 235 0
24 32 37 -235 0
-67 33 -53 236 0
-67 33 -53 -236 0
64 -69 14 237 0
64 -69 14 -237 0
23 58 54 238 0
23 58 54 -238 0
24 37 36 239 0
24 37 36 -239 0
-15 -54 50 240 0
-15 -54 50 -240 0
54 48 -38 241 0
54 48 -38 -241 0
22 13 36 242 0
22 13 36 -242 0
-61 -54 4 243 0
-61 -54 4 -243 0
66 -10 50 244 0
66 -10 50 -244 0
46 53 -58 245 0
46 53 -58 -245 0
-25 7 12 246 0
-25 7 12 -246 0
-29 60 48 247 0
-29 60 48 -247 0
10 -6 -57 248 0
10 -6 -57 -248 0
26 -35 53 249 0
26 -35 53 -249 0
-5 -31 70 250 0
-5 -31 70 -250 0
26 -1 -30 251 0
26 -1 -30 -251 0
-73 17 -52 252 0
-73 17 -52 -252 0
49 15 -2 253 0
49 15 -2 -253 0
-73 -53 -5 254 0
-73 -53 -5 -254 0
-66 -58 -22 255 0
-66 -58 -22 -255 0
8 71 -73 256 0
8 71 -73 -256 0
29 31 2 257 0
29 31 2 -257 0
2 49 -22 258 0
2 49 -22 -258 0
-49 -1 26 259 0
-49 -1 26 -259 0
-43 41 62 260 0
-43 41 62 -260 0
-62 -33 -27 261 0
-62 -33 -27 -261 0
-46 24 14 262 0
-46 24 14 -262 0
55 30 -64 263 0
55 30 -64 -263 0
-49 -6 -68 264 0
-49 -6 -68 -264 0
-3 27 8 265 0
-3 27 8 -265 0
-20 -2 -65 266 0
-20 -2 -65 -266 0
-30 32 8 267 0
-30 32 8 -267 0
-58 66 -47 268 0
-58 66 -47 -268 0
32 29 -31 269 0
32 29 -31 -269 0
34 -38 5 270 0
34 -38 5 -270 0
43 -55 27 271 0
43 -55 27 -271 0
43 -72 -17 272 0
43 -72 -17 -272 0
-69 -58 -43 273 0
-69 -58 -43 -273 0
3 71 20 274 0
3 71 20 -274 0
30 61 -69 275 0
30 61 -69 -275 0
71 -51 -27 276 0
71 -51 -27 -276 0
-32 -31 -65 277 0
-32 -31 -65 -277 0
-26 -35 47 278 0
-26 -35 47 -278 0
60 2 8 279 0
60 2 8 -279 0
35 64 20 280 0
35 64 20 -280 0
1 -18 -3 281 0
1 -18 -3 -281 0
20 -71 -22 282 0
20 -71 -22 -282 0
-73 -70 23 283 0
-73 -70 23 -283 0
-56 -48 -24 284 0
-56 -48 -24 -284 0
-22 -10 -46 285 0
-22 -10 -46 -285 0
-68 -38 -11 286 0
-68 -38 -11 -286 0
61 9 45 287 0
61 9 45 -287 0
71 -16 -9 288 0
71 -16 -9 -288 0
-40 41 44 289 0
-40 41 44 -289 0
46 50 -30 290 0
46 50 -30 -290 0
9 30 -19 291 0
9 30 -19 -291 0
-64 -28 -38 292 0
-64 -28 -38 -292 0
67 -62 -60 293 0
67 -62 -60 -293 0
49 -12 -25 294 0
49 -12 -25 -294 0
8 15 -73 295 0
8 15 -73 -295 0
-33 -39 -20 296 0
-33 -39 -20 -296 0
45 30 67 297 0
45 30 67 -297 0
-59 17 -23 298 0
-59 17 -23 -298 0
-24 75 -6 299 0
-24 75 -6 -299 0
17 -44 60 300 0
17 -44 60 -300 0
5 26 53 301 0
5 26 53 -301 0
-62 -48 -49 302 0
-62 -48 -49 -302 0
15 38 -17 303 0
15 38 -17 -303 0
31 29 42 304 0
31 29 42 -304 0
-6 19 -47 305 0
-6 19 -47 -305 0
-5 -38 -66 306 0
-5 -38 -66 -306 0
-2 48 40 307 0
-2 48 40 -307 0
-51 41 -57 308 0
-51 41 -57 -308 0
-34 -33 16 309 0
-34 -33 16 -309 0
-3 -75 -36 310 0
-3 -75 -36 -310 0
14 -70 33 311 0
14 -70 33 -311 0
71 55 67 312 0
71 55 67 -312 0
54 -5 -58 313 0
54 -5 -58 -313 0
-23 30 18 314 0
-23 30 18 -314 0
56 32 11 315 0
56 32 11 -315 0
-11 20 -71 316 0
-11 20 -71 -316 0
-61 -19 -27 317 0
-61 -19 -27 -317 0
-69 -33 -62 318 0
-69 -33 -62 -318 0
-36 -15 -13 319 0
-36 -15 -13 -319 0
-64 -33 75 320 0
-64 -33 75 -320 0
-75 60 -24 321 0
-75 60 -24 -321 0
-43 -13 -65 322 0
-43 -13 -65 -322 0
-51 59 -1 323 0
-51 59 -1 -323 0
21 -70 -8 324 0
21 -70 -8 -324 0
1 37 -19 325 0
1 37 -19 -325 0
6 35 52 326 0
6 35 52 -326 0
-1 -72 16 327 0
-1 -72 16 -327 0
33 42 64 328 0
33 42 64 -328 0
-26 -18 34 329 0
-26 -18 34 -329 0
-60 -27 38 330 0
-60 -27 38 -330 0
65 -22 6 331 0
65 -22 6 -331 0
19 -48 25 332 0
19 -48 25 -332 0
-42 5 -19 333 0
-42 5 -19 -333 0
-25 35 -60 334 0
-25 35 -60 -334 0
-3 -2 -41 335 0
-3 -2 -41 -335 0
-52 -10 1 336 0
-52 -10 1 -336 0
14 -32 -35 337 0
14 -32 -35 -337 0
-64 75 -8 338 0
-64 75 -8 -338 0
-13 -43 34 339 0
-13 -43 34 -339 0
-74 -63 -10 340 0
-74 -63 -10 -340 0
34 26 -7 341 0
34 26 -7 -341 0
45 -34 24 342 0
45 -34 24 -342 0
69 44 18 343 0
69 44 18 -343 0
50 -44 -69 344 0
50 -44 -69 -344 0
17 38 42 345 0
17 38 42 -345 0
24 -35 -41 346 0
24 -35 -41 -346 0
-22 -39 -19 347 0
-22 -39 -19 -347 0
63 36 -42 348 0
63 36 -42 -348 0
31 12 41 349 0
31 12 41 -349 0
-4 -37 -42 350 0
-4 -37 -42 -350 0
61 -11 -3 351 0
61 -11 -3 -351 0
12 63 36 352 0
12 63 36 -352 0
-29 19 40 353 0
-29 19 40 -353 0
69 55 12 354 0
69 55 12 -354 0
39 -8 -68 355 0
39 -8 -68 -355 0
-49 -39 67 356 0
-49 -39 67 -356 0
49 2 -20 357 0
49 2 -20 -357 0
-13 -61 70 358 0
-13 -61 70 -358 0
-53 50 73 359 0
-53 50 73 -359 0
21 -48 -10 360 0
21 -48 -10 -360 0
69 27 60 361 0
69 27 60 -361 0
-52 -18 37 362 0
-52 -18 37 -362 0
-74 35 7 363 0
-74 35 7 -363 0
29 -66 23 364 0
29 -66 23 -364 0
-38 46 35 365 0
-38 46 35 -365 0
45 -50 -48 366 0
45 -50 -48 -366 0
46 29 -6 367 0
46 29 -6 -367 0
19 -14 15 368 0
19 -14 15 -368 0
-50 18 20 369 0
-50 18 20 -369 0
-22 -73 65 370 0
-22 -73 65 -370 0
-3 -19 -63 371 0
-3 -19 -63 -371 0
-40 19 68 372 0
-40 19 68 -372 0
-26 -45 21 373 0
-26 -45 21 -373 0
70 -45 -29 374 0
70 -45 -29 -374 0
33 -64 62 375 0
33 -64 62 -375 0
35 47 54 376 0
35 47 54 -376 0
62 -45 -54 377 0
62 -45 -54 -377 0
57 40 8 378 0
57 40 8 -378 0
16 -5 46 379 0
16 -5 46 -379 0
63 34 -21 380 0
63 34 -21 -380 0
-45 -50 -35 381 0
-45 -50 -35 -381 0
52 58 31 382 0
52 58 31 -382 0
18 72 67 383 0
18 72 67 -383 0
42 -34 31 384 0
42 -34 31 -384 0
-47 -51 35 385 0
-47 -51 35 -385 0
49 30 12 386 0
49 30 12 -386 0
69 73 66 387 0
69 73 66 -387 0
-51 -45 3 388 0
-51 -45 3 -388 0
69 -37 -54 389 0
69 -37 -54 -389 0
-24 21 18 390 0
-24 21 18 -390 0
21 -62 -32 391 0
21 -62 -32 -391 0
40 63 49 392 0
40 63 49 -392 0
-36 64 -47 393 0
-36 64 -47 -393 0
58 -24 -2 394 0
58 -24 -2 -394 0
3 -71 72 395 0
3 -71 72 -395 0
-23 74 -72 396 0
-23 74 -72 -396 0
31 70 -54 397 0
31 70 -54 -397 0
-6 60 54 398 0
-6 60 54 -398 0
19 -5 33 399 0
19 -5 33 -399 0
-71 -44 -75 400 0
-71 -44 -75 -400 0
401 402 403 404 0
401 402 403 -404 0
401 402 -403 404 0
401 402 -403 -404 0
401 -402 403 404 0
401 -402 403 -404 0
401 -402 -403 404 0
401 -402 -403 -404 0
-401 402 403 404 0
-401 402 403 -404 0
-401 402 -403 404 0
-401 402 -403 -404 0
-401 -402 403 404 0
-401 -402 403 -404 0
-401 -402 -403 404 0
-401 -402 -403 -404 0
405 406 407 408 0
405 406 407 -408 0
405 406 -407 408 0
405 406 -407 -408 0
405 -406 407 408 0
405 -406 407 -408 0
405 -406 -407 408 0
405 -406 -407 -408 0
-405 406 407 408 0
-405 406 407 -408 0
-405 406 -407 408 0
-405 406 -407 -408 0
-405 -406 407 408 0
-405 -406 407 -408 0
-405 -406 -407 408 0
-405 -406 -407 -408 0
409 410 411 412 0
409 410 411 -412 0
409 410 -411 412 0
409 410 -411 -412 0
409 -410 411 412 0
409 -410 411 -412 0
409 -410 -411 412 0
409 -410 -411 -412 0
-409 410 411 412 0
-409 410 411 -412 0
-409 410 -411 412 0
-409 410 -411 -412 0
-409 -410 411 412 0
-409 -410 411 -412 0
-409 -410 -411 412 0
-409 -410 -411 -412 0
